Route #1: 75 93
Route #2: 69 16 55 76
Route #3: 50 91 52
Route #4: 7 2 45 43 29 36 72 57
Route #5: 30 85 11 79
Route #6: 66 84 90 68
Route #7: 59 60 82
Route #8: 83 51 81
Route #9: 14 49 6 37 87
Route #10: 28 42 78 65 25
Route #11: 34 64 96 48 26 47 38
Route #12: 20 41 22 15
Route #13: 44 67 88 40
Route #14: 32 33 53 73 95 24
Route #15: 1 70 54
Route #16: 39 10 18
Route #17: 100 61 23
Route #18: 27 97 19
Route #19: 63 77 3
Route #20: 74 13 4
Route #21: 35 46 31
Route #22: 92 9 86
Route #23: 89 98 99 62 71
Route #24: 8 17
Route #25: 21 56 94 80
Route #26: 58 12 5
Cost 27591.0000
Time 16.0013